objective value:                                   -3
t_n_12                                              1 	(obj:-1)
t_n_294                                             1 	(obj:-1)
t_n_1883                                            1 	(obj:-1)
